
Gurobi 11.0.3 (win64) logging started Mon Sep  2 15:31:40 2024

Set parameter LogFile to value "C:\Users\ealvarezq\Desktop\B.Operation_cost\IEEE118_mod2_ByStages_nc70/openStarNet_IEEE118_mod2_ByStages_nc70.log"
Set parameter Method to value 2
Set parameter MIPFocus to value 1
Set parameter Presolve to value 2
Set parameter RINS to value 100
Set parameter MIPGap to value 0.01
Set parameter Threads to value 24
Set parameter TimeLimit to value 259200
Set parameter IterationLimit to value 760000000
Gurobi Optimizer version 11.0.3 build v11.0.3rc0 (win64 - Windows Server 2019.0 (17763.2))

CPU model: AMD Ryzen Threadripper PRO 3955WX 16-Cores, instruction set [SSE2|AVX|AVX2]
Thread count: 16 physical cores, 32 logical processors, using up to 24 threads

Optimize a model with 99473 rows, 73196 columns and 255518 nonzeros
Model fingerprint: 0x02434f8c
Variable types: 73162 continuous, 34 integer (34 binary)
Coefficient statistics:
  Matrix range     [8e-04, 9e+03]
  Objective range  [1e+00, 1e+00]
  Bounds range     [1e-04, 3e+00]
  RHS range        [2e-04, 3e+00]
Presolve removed 67290 rows and 33629 columns
Presolve time: 0.53s
Presolved: 32183 rows, 39567 columns, 117653 nonzeros
Variable types: 39533 continuous, 34 integer (34 binary)
Root relaxation presolved: 32183 rows, 39567 columns, 117653 nonzeros

Root barrier log...

Ordering time: 0.02s

Barrier statistics:
 Dense cols : 34
 AA' NZ     : 1.457e+05
 Factor NZ  : 5.647e+05 (roughly 34 MB of memory)
 Factor Ops : 1.180e+07 (less than 1 second per iteration)
 Threads    : 23

                  Objective                Residual
Iter       Primal          Dual         Primal    Dual     Compl     Time
   0   8.84089927e+06 -9.66505404e+08  1.55e+01 2.13e+03  4.49e+04     1s
   1   2.11362370e+06 -3.70363259e+08  3.37e+00 8.11e-09  9.21e+03     1s
   2   6.56976618e+05 -2.99371071e+08  7.77e-01 5.46e-09  4.27e+03     1s
   3   3.86032795e+05 -5.56125194e+07  2.54e-01 3.17e-09  7.55e+02     1s
   4   2.45457209e+05 -9.36081486e+06  1.68e-02 4.32e-10  1.05e+02     1s
   5   1.74846663e+05 -2.28835336e+06  4.39e-03 1.07e-10  2.62e+01     1s
   6   1.13502450e+05 -6.52737994e+05  1.84e-03 5.64e-11  8.10e+00     1s
   7   4.72730220e+04 -2.04184180e+05  6.02e-04 1.32e-11  2.65e+00     1s
   8   1.78912038e+04 -7.12802371e+04  1.73e-04 1.07e-11  9.40e-01     1s
   9   9.88702639e+03 -1.98027385e+04  7.44e-05 6.24e-12  3.13e-01     1s
  10   5.84868897e+03 -5.11098576e+03  3.51e-05 6.57e-12  1.15e-01     1s
  11   4.82511956e+03 -4.56861125e+03  2.66e-05 4.39e-12  9.89e-02     1s
  12   3.11993319e+03 -1.04480104e+03  1.34e-05 3.60e-12  4.39e-02     1s
  13   2.30891925e+03 -7.94858893e+01  7.59e-06 6.17e-12  2.52e-02     1s
  14   1.75912733e+03  4.65282535e+02  3.85e-06 3.56e-12  1.36e-02     1s
  15   1.46204746e+03  8.24651153e+02  2.05e-06 6.57e-12  6.71e-03     2s
  16   1.36072657e+03  9.70817962e+02  1.41e-06 5.43e-12  4.11e-03     2s
  17   1.26316367e+03  1.03145381e+03  7.88e-07 3.47e-12  2.44e-03     2s
  18   1.25128394e+03  1.03928217e+03  7.13e-07 4.87e-12  2.23e-03     2s
  19   1.24135142e+03  1.05993095e+03  6.50e-07 2.27e-12  1.91e-03     2s
  20   1.19844232e+03  1.09110016e+03  3.82e-07 5.82e-12  1.13e-03     3s
  21   1.16594199e+03  1.11265418e+03  1.82e-07 6.16e-12  5.61e-04     3s
  22   1.14811751e+03  1.12334485e+03  7.65e-08 7.50e-12  2.61e-04     3s
  23   1.14206972e+03  1.12887682e+03  4.07e-08 5.26e-12  1.39e-04     4s
  24   1.13982254e+03  1.13142727e+03  2.76e-08 5.38e-12  8.84e-05     4s
  25   1.13701173e+03  1.13285826e+03  1.12e-08 4.27e-12  4.37e-05     4s
  26   1.13592932e+03  1.13414604e+03  5.05e-09 8.05e-12  1.88e-05     5s
  27   1.13531154e+03  1.13456349e+03  8.29e-09 7.83e-12  7.88e-06     5s
  28   1.13508857e+03  1.13492771e+03  3.85e-09 6.92e-12  1.69e-06     6s
  29   1.13499336e+03  1.13496208e+03  5.86e-09 5.06e-12  3.29e-07     6s
  30   1.13497629e+03  1.13496610e+03  2.40e-09 7.92e-12  1.07e-07     6s
  31   1.13496942e+03  1.13496703e+03  8.17e-10 3.44e-12  2.51e-08     6s
  32   1.13496775e+03  1.13496722e+03  3.55e-09 5.64e-12  5.58e-09     6s
  33   1.13496726e+03  1.13496723e+03  3.14e-10 7.12e-12  3.24e-10     6s
  34   1.13496724e+03  1.13496724e+03  1.17e-10 6.17e-12  5.80e-12     6s

Barrier solved model in 34 iterations and 6.15 seconds (1.17 work units)
Optimal objective 1.13496724e+03


Root crossover log...

    6807 DPushes remaining with DInf 0.0000000e+00                 6s
       0 DPushes remaining with DInf 0.0000000e+00                 6s

     661 PPushes remaining with PInf 0.0000000e+00                 6s
       0 PPushes remaining with PInf 0.0000000e+00                 7s

  Push phase complete: Pinf 0.0000000e+00, Dinf 3.4583003e-11      7s


Root simplex log...

Iteration    Objective       Primal Inf.    Dual Inf.      Time
    2574    1.1349672e+03   0.000000e+00   0.000000e+00      7s
    2574    1.1349672e+03   0.000000e+00   0.000000e+00      7s

Root relaxation: objective 1.134967e+03, 2574 iterations, 6.11 seconds (0.99 work units)

    Nodes    |    Current Node    |     Objective Bounds      |     Work
 Expl Unexpl |  Obj  Depth IntInf | Incumbent    BestBd   Gap | It/Node Time

     0     0 1134.96724    0   25          - 1134.96724      -     -    7s
H    0     0                    9499.0957780 1134.96724  88.1%     -    9s
H    0     0                    3725.0719724 1134.96724  69.5%     -    9s
     0     0 1157.87144    0   25 3725.07197 1157.87144  68.9%     -   11s
H    0     0                    1345.8311082 1157.87144  14.0%     -   12s
     0     0 1158.20063    0   25 1345.83111 1158.20063  13.9%     -   12s
     0     0 1160.18045    0   23 1345.83111 1160.18045  13.8%     -   13s
     0     0 1160.19494    0   23 1345.83111 1160.19494  13.8%     -   14s
     0     0 1160.31374    0   22 1345.83111 1160.31374  13.8%     -   14s
     0     0 1160.31598    0   22 1345.83111 1160.31598  13.8%     -   15s
     0     0 1160.45334    0   22 1345.83111 1160.45334  13.8%     -   15s
     0     0 1160.45686    0   22 1345.83111 1160.45686  13.8%     -   15s
     0     0 1162.05232    0   22 1345.83111 1162.05232  13.7%     -   17s
H    0     0                    1300.8060999 1162.05232  10.7%     -  167s
     0     2 1162.05232    0   22 1300.80610 1162.05232  10.7%     -  168s
     1     4 1233.40909    1   19 1300.80610 1162.48747  10.6%  3565  171s
     7    12     cutoff    3      1300.80610 1191.95757  8.37%  1594  176s
    27    30 1272.52943    5   18 1300.80610 1207.43351  7.18%  1193  188s
    47    41     cutoff    6      1300.80610 1215.62552  6.55%  1168  191s
    71    49 1244.11178    7   17 1300.80610 1224.81773  5.84%  1085  197s
    95    53 1246.88658    8   16 1300.80610 1225.53028  5.79%   999  201s
   143    67     cutoff   10      1300.80610 1234.75457  5.08%   948  212s
   173    69 1257.74448    9   15 1300.80610 1234.75457  5.08%   893  215s
   235    68     cutoff   10      1300.80610 1234.75457  5.08%   824  228s
   266    64 1287.55131    8   16 1300.80610 1234.75457  5.08%   820  230s
   305    51     cutoff    9      1300.80610 1234.75457  5.08%   785  240s
   397    62 1294.74417   19    5 1300.80610 1234.75457  5.08%   713  248s
   457    61 1299.61998   22    2 1300.80610 1234.75457  5.08%   667  250s
   588    39 1261.11556   10   13 1300.80610 1253.63749  3.63%   570  255s
   699    25 1272.77032   12   11 1300.80610 1256.38929  3.41%   529  300s
   787    20     cutoff   14      1300.80610 1256.38929  3.41%   513  306s
   894     6     cutoff    8      1300.80610 1273.00070  2.14%   480  311s
   900     2 1291.17749    9   13 1300.80610 1286.52067  1.10%   482  389s

Cutting planes:
  Gomory: 3
  Implied bound: 137
  MIR: 330
  Flow cover: 2
  RLT: 1
  Relax-and-lift: 5

Explored 906 nodes (439913 simplex iterations) in 390.25 seconds (444.33 work units)
Thread count was 24 (of 32 available processors)

Solution count 4: 1300.81 1345.83 3725.07 9499.1 

Optimal solution found (tolerance 1.00e-02)
Best objective 1.300806099852e+03, best bound 1.291231880176e+03, gap 0.7360%

Gurobi 11.0.3 (win64) logging started Mon Sep  2 15:38:51 2024

Set parameter LogFile to value "C:\Users\ealvarezq\Desktop\B.Operation_cost\IEEE118_mod2_ByStages_nc70/openStarNet_IEEE118_mod2_ByStages_nc70.log"
Set parameter Method to value 2
Set parameter MIPFocus to value 1
Set parameter Presolve to value 2
Set parameter RINS to value 100
Set parameter MIPGap to value 0.01
Set parameter Threads to value 24
Set parameter TimeLimit to value 259200
Set parameter IterationLimit to value 760000000
Gurobi Optimizer version 11.0.3 build v11.0.3rc0 (win64 - Windows Server 2019.0 (17763.2))

CPU model: AMD Ryzen Threadripper PRO 3955WX 16-Cores, instruction set [SSE2|AVX|AVX2]
Thread count: 16 physical cores, 32 logical processors, using up to 24 threads

Optimize a model with 99473 rows, 73162 columns and 245964 nonzeros
Model fingerprint: 0xe4e3e2af
Coefficient statistics:
  Matrix range     [8e-04, 9e+03]
  Objective range  [1e+00, 1e+00]
  Bounds range     [1e-04, 3e+00]
  RHS range        [2e-04, 3e+02]
Presolve removed 74063 rows and 31965 columns
Presolve time: 0.19s
Presolved: 25410 rows, 41473 columns, 99417 nonzeros

Ordering time: 0.01s

Barrier statistics:
 AA' NZ     : 8.445e+04
 Factor NZ  : 3.363e+05 (roughly 30 MB of memory)
 Factor Ops : 4.888e+06 (less than 1 second per iteration)
 Threads    : 24

                  Objective                Residual
Iter       Primal          Dual         Primal    Dual     Compl     Time
   0   1.54442743e+07 -5.03572901e+08  9.84e+01 1.97e+02  2.26e+04     1s
   1   1.73763400e+06 -1.54324671e+08  9.57e+00 2.27e-12  2.98e+03     1s
   2   4.18582932e+05 -2.82568759e+07  1.37e+00 2.73e-12  4.30e+02     1s
   3   1.97952015e+05 -3.83301717e+06  4.52e-02 1.82e-12  4.61e+01     1s
   4   9.55053901e+04 -7.60929549e+05  2.32e-03 9.32e-12  9.47e+00     1s
   5   3.89949626e+04 -2.21515470e+05  8.09e-04 2.50e-12  2.88e+00     1s
   6   1.72708227e+04 -7.64162993e+04  2.72e-04 8.24e-13  1.03e+00     1s
   7   8.80619393e+03 -3.80531640e+04  9.71e-05 4.19e-13  5.17e-01     1s
   8   5.72843841e+03 -1.09181973e+04  4.46e-05 4.32e-13  1.84e-01     1s
   9   3.54013312e+03 -3.95378250e+03  1.93e-05 4.34e-13  8.27e-02     1s
  10   2.46721889e+03 -8.83891742e+02  9.17e-06 3.79e-13  3.70e-02     1s
  11   2.01857408e+03  2.47886743e+02  5.33e-06 2.92e-13  1.95e-02     1s
  12   1.71925590e+03  7.53104976e+02  2.97e-06 3.60e-13  1.07e-02     1s
  13   1.55692929e+03  9.82305916e+02  1.77e-06 4.28e-13  6.34e-03     1s
  14   1.44863746e+03  1.12526105e+03  9.90e-07 4.27e-13  3.57e-03     1s
  15   1.38472956e+03  1.21301052e+03  5.49e-07 4.92e-13  1.90e-03     1s
  16   1.34497559e+03  1.25863934e+03  2.80e-07 3.38e-13  9.53e-04     1s
  17   1.32935997e+03  1.27219353e+03  1.78e-07 5.56e-13  6.31e-04     1s
  18   1.31261109e+03  1.29371076e+03  7.02e-08 4.04e-13  2.09e-04     1s
  19   1.30646427e+03  1.29680898e+03  3.31e-08 3.66e-13  1.07e-04     1s
  20   1.30357845e+03  1.29932494e+03  1.59e-08 4.10e-13  4.69e-05     1s
  21   1.30134261e+03  1.30027977e+03  2.84e-09 4.30e-13  1.17e-05     1s
  22   1.30093913e+03  1.30059350e+03  6.20e-10 4.67e-13  3.81e-06     1s
  23   1.30081578e+03  1.30075315e+03  8.62e-10 4.40e-13  6.91e-07     1s
  24   1.30080815e+03  1.30080150e+03  1.66e-10 4.40e-13  7.34e-08     1s
  25   1.30080613e+03  1.30080569e+03  1.14e-10 4.62e-13  4.82e-09     1s
  26   1.30080610e+03  1.30080610e+03  6.23e-11 5.08e-13  3.52e-12     1s

Barrier solved model in 26 iterations and 1.09 seconds (0.45 work units)
Optimal objective 1.30080610e+03

Crossover log...

    7266 DPushes remaining with DInf 0.0000000e+00                 1s
       0 DPushes remaining with DInf 0.0000000e+00                 1s

     286 PPushes remaining with PInf 0.0000000e+00                 1s
       0 PPushes remaining with PInf 0.0000000e+00                 1s

  Push phase complete: Pinf 0.0000000e+00, Dinf 3.1520244e-12      1s

Iteration    Objective       Primal Inf.    Dual Inf.      Time
    2280    1.3008061e+03   0.000000e+00   0.000000e+00      1s

Solved in 2280 iterations and 1.30 seconds (0.53 work units)
Optimal objective  1.300806100e+03
